#pLT is two-dimensional [i,r]=[component, individual]
#[i,*] means all data in row i.

param pLT := 
[1,*]
1  0    2  8    3  8    4  5    5  7    6  6    

[2,*]
1  3    2  5    3  4    4  5    5  4    6  4    
;